
&control
calculation = 'scf',
prefix = 'TiO',
outdir = './tmp/'
pseudo_dir = '.'
    tstress=.true.
    tprnfor=.true. 
    etot_conv_thr=1.0D-6
    forc_conv_thr=1.0D-5
    nstep=1000
/

&system
  ibrav =0,
  celldm(1) =11.46323974 ,  nat = 2,
  ntyp = 2,
  ecutwfc = 70,
  occupations = 'smearing'
   degauss = 0.02,
   smearing = 'mp'
  !nbnd=50,
/

&electrons
conv_thr = 1.0d-17
mixing_beta = 0.4D0
diagonalization = 'david' 
diago_david_ndim = 4
/

ATOMIC_SPECIES
    Ti  47.867   Ti.pbe-spn-kjpaw_psl.1.0.0.UPF
    O   15.999   O.pbe-n-kjpaw_psl.1.0.0.UPF   

CELL_PARAMETERS (alat= 11.46323974)
   0.291050022   0.145593487   0.291050022
   0.145593487   0.291050022  -0.291050022
  -0.291050022   0.291050022   0.145593487

ATOMIC_POSITIONS (crystal)
Ti            0.0000000000       -0.0000000000       -0.0000000000
O             0.5000000000        0.5000000000        0.5000000000


k_points automatic
10 10 10 0 0 0

