&inputph
  recover  = .false.
  start_q=1,
  last_q=1,
  tr2_ph=1.0d-20,
  ldisp=.true.,
  el_ph_sigma=0.005, 
  el_ph_nsigma=30,
  trans=.true.,
  nq1=4, nq2=4, nq3=2
  alpha_mix(1)=0.297
  prefix='PTOTiO',
  outdir = './tmp/'
  fildyn='PTOTiO.dyn',
  electron_phonon='interpolated',
  fildvscf = 'dvscf'
/
