Phonons for STO-TiO
&inputph
  prefix = 'sto_tio'
  outdir = '../tmp'
  fildyn = 'sto_tio.dyn'
  ldisp = .true.
  nq1 = 4
  nq2 = 4
  nq3 = 2
  tr2_ph = 1.0d-14
  alpha_mix(1) = 0.7
  max_seconds = 86400
/