&input
  fildyn='sto_tio.dyn'
  flfrc='sto_tio.fc'
  zasr='crystal'
/